SAT
-1 -100 -99 98 -77 -20 94 -17 12 -91 82 -16 8 -6 -52 -83 62 15 -71 74 81 -38 78 11 50 89 44 22 -72 -66 -30 -53 68 32 -24 69 35 -59 54 -47 -2 -67 57 9 60 97 -46 -92 -73 93 -79 -29 43 -48 -90 23 -88 64 39 -51 -19 -63 36 31 80 75 3 13 41 14 65 -40 -34 -7 -55 -70 -61 -87 10 -76 49 25 96 56 85 -26 21 -5 -33 -42 28 -4 86 -58 45 -84 -18 -37 -95 -27 0
